n_res = 4;
rc = [ 0, 0, 0, 0 ];
n_tasks = 30;
d = [ 5, 8, 2, 8, 6, 2, 2, 3, 4, 1, 9, 4, 8, 9, 7, 6, 4, 7, 5, 9, 10, 10, 6, 10, 2, 1, 9, 8, 3, 3 ];
rr = [| 0, 0, 0, 0, 0, 0, 0, 0, 0, 0, 0, 0, 0, 0, 0, 0, 0, 0, 0, 0, 0, 0, 0, 0, 0, 0, 0, 0, 0, 0
      | 0, 0, 0, 0, 0, 0, 0, 0, 0, 0, 0, 0, 0, 0, 0, 0, 0, 0, 0, 0, 0, 0, 0, 0, 0, 0, 0, 0, 0, 0
      | 0, 0, 0, 0, 0, 0, 0, 0, 0, 0, 0, 0, 0, 0, 0, 0, 0, 0, 0, 0, 0, 0, 0, 0, 0, 0, 0, 0, 0, 0
      | 0, 0, 0, 0, 0, 0, 0, 0, 0, 0, 0, 0, 0, 0, 0, 0, 0, 0, 0, 0, 0, 0, 0, 0, 0, 0, 0, 0, 0, 0 |];
suc = [ { 4, 5, 11 },
       { 4, 6, 17 },
       { 12, 13, 20 },
       { 9, 10, 16 },
       { 9, 17, 21 },
       { 7, 8, 22 },
       { 11, 15, 16 },
       { 16 },
       { 15, 18, 22 },
       { 12, 14, 18 },
       { 12, 14, 19 },
       { 21, 25 },
       { 17, 30 },
       { 20, 21, 24 },
       { 19, 20, 24 },
       { 23, 25, 26 },
       { 26 },
       { 19, 24, 25 },
       { 27 },
       { 28 },
       { 23, 26 },
       { 23 },
       { 28, 30 },
       { 27, 29 },
       { 27, 29 },
       { 29 },
       { 28, 30 },
       {  },
       {  },
       {  } ];
